NAME: random_30_0
TYPE: TSP
COMMENT: random_30_0
DIMENSION: 30
EDGE_WEIGHT_TYPE: EUC_2D
NODE_COORD_SECTION
1 280 429
2 230 414
3 111 27
4 128 27
5 2 318
6 164 182
7 468 102
8 14 25
9 355 8
10 382 319
11 254 320
12 274 235
13 359 230
14 222 4
15 459 77
16 396 189
17 473 91
18 172 257
19 251 284
20 213 39
21 108 245
22 119 294
23 131 78
24 15 492
25 250 270
26 4 21
27 407 314
28 467 253
29 418 19
30 174 425
